<DOCUMENT>
<COLORDEN>-1</COLORDEN>
<TIPOORDEN>-1</TIPOORDEN>
<FILASPAGINA>0</FILASPAGINA>
<VISIBILIDAD>
	<VISIBLECOLUMNA name="idmiembrocomision" >0</VISIBLECOLUMNA>
	<VISIBLECOLUMNA name="idcomision" >0</VISIBLECOLUMNA>
	<VISIBLECOLUMNA name="fechainmiembrocomision" >1</VISIBLECOLUMNA>
	<VISIBLECOLUMNA name="fechafinmiembrocomision" >1</VISIBLECOLUMNA>
	<VISIBLECOLUMNA name="idcliente" >0</VISIBLECOLUMNA>
	<VISIBLECOLUMNA name="nomcliente" >1</VISIBLECOLUMNA>
	<VISIBLECOLUMNA name="cargomiembrocomision" >1</VISIBLECOLUMNA>
</VISIBILIDAD>
<HORIZONTALHEADER>AAAA/wAAAAAAAAABAAAAAQAAAAcAAAAAAAAAAAAAAAAHEwAAAAMAAAAEAAAAZAAAAAEAAABkAAAAAAAAAGQAAAGQAAAABwEBAQAAAAAAAAAAAAAAAABk/////wAAAIQAAAAAAAAABQAAAAAAAAABAAAAAAAAAAAAAAABAAAAAAAAAMgAAAACAAAAAAAAAAAAAAABAAAAAAAAAMgAAAACAAAAAA==</HORIZONTALHEADER>
<COLUMNASHORIZONTALHEADER>AAAA/wAAAAAAAAABAAAAAQAAAAQAAAAAAAAAAAAAAAAEDAAAAAIAAAADAAAAAAAAAAIAAAAAAAAA3AAAAAQAAQEAAAAAAAAAAAABAAAAZP////8AAACEAAAAAAAAAAMAAAB4AAAAAQAAAAMAAABkAAAAAQAAAAAAAAAAAAAAAgAAAAA=</COLUMNASHORIZONTALHEADER>
<ORDENCOLUMNAS>
	<ORDENCOLUMNA name="idmiembrocomision" >0</ORDENCOLUMNA>
	<ORDENCOLUMNA name="idcomision" >1</ORDENCOLUMNA>
	<ORDENCOLUMNA name="fechainmiembrocomision" >2</ORDENCOLUMNA>
	<ORDENCOLUMNA name="fechafinmiembrocomision" >3</ORDENCOLUMNA>
	<ORDENCOLUMNA name="idcliente" >4</ORDENCOLUMNA>
	<ORDENCOLUMNA name="nomcliente" >5</ORDENCOLUMNA>
	<ORDENCOLUMNA name="cargomiembrocomision" >6</ORDENCOLUMNA>
</ORDENCOLUMNAS>
<VISIBILIDADMENU>1</VISIBILIDADMENU>
</DOCUMENT>
